p edge 100 2400
e 1 2
e 1 3
e 1 4
e 1 5
e 1 6
e 1 7
e 1 8
e 1 9
e 1 10
e 1 11
e 1 12
e 1 13
e 1 14
e 1 15
e 1 16
e 1 17
e 1 18
e 1 19
e 1 20
e 1 21
e 1 22
e 1 23
e 1 24
e 1 25
e 1 26
e 1 27
e 1 28
e 1 29
e 1 30
e 1 31
e 1 32
e 1 33
e 1 34
e 1 35
e 1 36
e 1 37
e 1 38
e 1 39
e 1 40
e 1 41
e 1 42
e 1 43
e 1 44
e 1 45
e 1 46
e 1 47
e 1 48
e 1 49
e 1 50
e 1 51
e 1 52
e 1 53
e 1 54
e 1 55
e 1 56
e 1 57
e 1 58
e 1 59
e 1 60
e 1 61
e 1 62
e 1 63
e 1 64
e 1 65
e 1 66
e 1 67
e 1 68
e 1 69
e 1 70
e 1 71
e 1 72
e 1 73
e 1 74
e 1 75
e 1 76
e 1 77
e 1 78
e 1 79
e 1 80
e 1 81
e 1 82
e 1 83
e 1 84
e 1 85
e 1 86
e 1 87
e 1 88
e 2 42
e 2 43
e 2 44
e 2 45
e 2 46
e 2 47
e 2 48
e 2 49
e 2 50
e 2 51
e 2 52
e 2 53
e 2 54
e 2 55
e 2 56
e 2 57
e 2 58
e 2 59
e 2 60
e 2 61
e 2 63
e 2 64
e 2 66
e 2 67
e 2 68
e 2 69
e 2 70
e 2 72
e 2 74
e 2 89
e 2 75
e 2 77
e 2 79
e 2 83
e 2 90
e 2 84
e 2 86
e 2 91
e 2 92
e 2 93
e 2 94
e 3 42
e 3 44
e 3 45
e 3 46
e 3 47
e 3 48
e 3 49
e 3 50
e 3 52
e 3 53
e 3 54
e 3 55
e 3 57
e 3 58
e 3 59
e 3 60
e 3 95
e 3 96
e 3 61
e 3 62
e 3 63
e 3 65
e 3 67
e 3 68
e 3 70
e 3 71
e 3 78
e 3 81
e 3 83
e 3 97
e 3 91
e 3 88
e 3 93
e 4 42
e 4 43
e 4 44
e 4 45
e 4 47
e 4 49
e 4 50
e 4 51
e 4 54
e 4 55
e 4 57
e 4 58
e 4 95
e 4 96
e 4 61
e 4 65
e 4 98
e 4 68
e 4 69
e 4 75
e 4 77
e 4 78
e 4 90
e 4 92
e 5 42
e 5 43
e 5 44
e 5 45
e 5 46
e 5 47
e 5 48
e 5 49
e 5 51
e 5 53
e 5 54
e 5 57
e 5 59
e 5 61
e 5 63
e 5 68
e 5 71
e 5 72
e 5 75
e 5 76
e 5 80
e 5 84
e 5 97
e 5 85
e 5 86
e 5 91
e 5 88
e 6 42
e 6 43
e 6 44
e 6 45
e 6 46
e 6 47
e 6 48
e 6 49
e 6 50
e 6 52
e 6 53
e 6 56
e 6 57
e 6 58
e 6 59
e 6 60
e 6 96
e 6 65
e 6 98
e 6 66
e 6 67
e 6 99
e 6 79
e 6 83
e 6 90
e 6 97
e 6 85
e 6 92
e 7 42
e 7 43
e 7 44
e 7 45
e 7 46
e 7 47
e 7 48
e 7 50
e 7 51
e 7 52
e 7 53
e 7 54
e 7 56
e 7 59
e 7 60
e 7 95
e 7 96
e 7 62
e 7 63
e 7 68
e 7 70
e 7 74
e 7 79
e 7 81
e 7 82
e 7 91
e 7 100
e 8 42
e 8 43
e 8 44
e 8 45
e 8 46
e 8 47
e 8 48
e 8 49
e 8 52
e 8 53
e 8 55
e 8 56
e 8 57
e 8 59
e 8 60
e 8 95
e 8 96
e 8 62
e 8 65
e 8 71
e 8 72
e 8 77
e 8 78
e 8 80
e 8 83
e 8 90
e 8 97
e 8 86
e 8 87
e 9 42
e 9 43
e 9 44
e 9 45
e 9 47
e 9 48
e 9 49
e 9 50
e 9 51
e 9 52
e 9 53
e 9 55
e 9 57
e 9 58
e 9 60
e 9 96
e 9 61
e 9 62
e 9 64
e 9 65
e 9 98
e 9 66
e 9 67
e 9 68
e 9 69
e 9 70
e 9 71
e 9 72
e 9 89
e 9 75
e 9 76
e 9 77
e 9 78
e 9 79
e 9 80
e 9 82
e 9 90
e 9 97
e 9 86
e 9 87
e 9 92
e 9 93
e 10 42
e 10 43
e 10 44
e 10 45
e 10 46
e 10 47
e 10 48
e 10 49
e 10 50
e 10 51
e 10 52
e 10 53
e 10 54
e 10 56
e 10 57
e 10 59
e 10 60
e 10 63
e 10 64
e 10 65
e 10 98
e 10 69
e 10 71
e 10 72
e 10 73
e 10 76
e 10 81
e 10 83
e 10 84
e 10 97
e 10 87
e 10 92
e 11 42
e 11 43
e 11 44
e 11 45
e 11 46
e 11 48
e 11 49
e 11 50
e 11 51
e 11 52
e 11 54
e 11 55
e 11 58
e 11 59
e 11 60
e 11 62
e 11 63
e 11 65
e 11 67
e 11 74
e 11 76
e 11 81
e 11 83
e 11 90
e 11 97
e 11 87
e 11 93
e 12 42
e 12 43
e 12 44
e 12 45
e 12 46
e 12 47
e 12 48
e 12 50
e 12 51
e 12 53
e 12 54
e 12 55
e 12 58
e 12 59
e 12 96
e 12 61
e 12 62
e 12 63
e 12 64
e 12 98
e 12 67
e 12 68
e 12 70
e 12 72
e 12 89
e 12 79
e 12 97
e 12 91
e 12 87
e 13 42
e 13 44
e 13 46
e 13 47
e 13 48
e 13 49
e 13 50
e 13 51
e 13 52
e 13 54
e 13 55
e 13 56
e 13 58
e 13 60
e 13 95
e 13 96
e 13 63
e 13 65
e 13 98
e 13 66
e 13 67
e 13 68
e 13 70
e 13 72
e 13 73
e 13 74
e 13 89
e 13 84
e 13 92
e 13 88
e 13 93
e 14 42
e 14 43
e 14 44
e 14 45
e 14 46
e 14 47
e 14 49
e 14 51
e 14 52
e 14 54
e 14 55
e 14 60
e 14 64
e 14 98
e 14 68
e 14 70
e 14 89
e 14 77
e 14 79
e 14 82
e 14 87
e 14 100
e 15 42
e 15 43
e 15 44
e 15 45
e 15 46
e 15 47
e 15 48
e 15 49
e 15 50
e 15 51
e 15 52
e 15 53
e 15 56
e 15 96
e 15 62
e 15 64
e 15 65
e 15 68
e 15 72
e 15 75
e 15 76
e 15 77
e 15 78
e 15 79
e 15 81
e 15 90
e 15 97
e 15 85
e 16 42
e 16 43
e 16 44
e 16 45
e 16 46
e 16 47
e 16 48
e 16 49
e 16 50
e 16 51
e 16 52
e 16 53
e 16 54
e 16 55
e 16 57
e 16 59
e 16 96
e 16 61
e 16 62
e 16 63
e 16 64
e 16 98
e 16 68
e 16 70
e 16 72
e 16 74
e 16 75
e 16 76
e 16 77
e 16 99
e 16 79
e 16 80
e 16 82
e 16 84
e 16 85
e 16 91
e 16 100
e 16 93
e 17 42
e 17 43
e 17 44
e 17 45
e 17 46
e 17 47
e 17 48
e 17 50
e 17 53
e 17 54
e 17 56
e 17 57
e 17 58
e 17 59
e 17 60
e 17 95
e 17 96
e 17 61
e 17 63
e 17 67
e 17 69
e 17 71
e 17 73
e 17 74
e 17 83
e 17 90
e 17 91
e 17 100
e 18 42
e 18 43
e 18 44
e 18 45
e 18 46
e 18 47
e 18 48
e 18 49
e 18 50
e 18 51
e 18 53
e 18 54
e 18 55
e 18 56
e 18 57
e 18 58
e 18 62
e 18 63
e 18 65
e 18 68
e 18 72
e 18 89
e 18 75
e 18 76
e 18 99
e 18 85
e 18 86
e 19 42
e 19 43
e 19 44
e 19 45
e 19 46
e 19 47
e 19 48
e 19 49
e 19 50
e 19 51
e 19 52
e 19 53
e 19 54
e 19 55
e 19 57
e 19 58
e 19 59
e 19 60
e 19 96
e 19 61
e 19 62
e 19 63
e 19 64
e 19 66
e 19 68
e 19 69
e 19 70
e 19 71
e 19 74
e 19 89
e 19 75
e 19 77
e 19 78
e 19 99
e 19 79
e 19 80
e 19 92
e 19 88
e 20 42
e 20 43
e 20 44
e 20 45
e 20 46
e 20 47
e 20 48
e 20 49
e 20 50
e 20 51
e 20 53
e 20 54
e 20 55
e 20 57
e 20 59
e 20 95
e 20 96
e 20 61
e 20 62
e 20 63
e 20 64
e 20 66
e 20 67
e 20 73
e 20 89
e 20 77
e 20 80
e 20 81
e 20 84
e 20 97
e 20 85
e 20 87
e 20 93
e 21 42
e 21 43
e 21 44
e 21 45
e 21 46
e 21 47
e 21 48
e 21 50
e 21 52
e 21 55
e 21 56
e 21 57
e 21 60
e 21 95
e 21 61
e 21 62
e 21 63
e 21 64
e 21 65
e 21 66
e 21 67
e 21 69
e 21 70
e 21 71
e 21 73
e 21 82
e 21 97
e 21 91
e 21 92
e 22 42
e 22 43
e 22 44
e 22 45
e 22 46
e 22 48
e 22 51
e 22 52
e 22 53
e 22 55
e 22 56
e 22 58
e 22 59
e 22 95
e 22 61
e 22 66
e 22 68
e 22 70
e 22 71
e 22 72
e 22 89
e 22 75
e 22 76
e 22 77
e 22 78
e 22 99
e 22 79
e 22 80
e 22 81
e 22 90
e 22 91
e 22 94
e 23 42
e 23 43
e 23 44
e 23 46
e 23 47
e 23 48
e 23 49
e 23 50
e 23 51
e 23 54
e 23 55
e 23 56
e 23 58
e 23 95
e 23 64
e 23 98
e 23 66
e 23 68
e 23 69
e 23 71
e 23 75
e 23 77
e 23 78
e 23 99
e 23 80
e 23 83
e 23 84
e 23 85
e 23 87
e 23 88
e 23 100
e 24 42
e 24 43
e 24 44
e 24 45
e 24 46
e 24 47
e 24 48
e 24 49
e 24 53
e 24 55
e 24 56
e 24 58
e 24 60
e 24 95
e 24 96
e 24 62
e 24 98
e 24 69
e 24 71
e 24 73
e 24 74
e 24 89
e 24 80
e 24 81
e 24 82
e 24 97
e 24 93
e 25 42
e 25 43
e 25 45
e 25 46
e 25 47
e 25 49
e 25 50
e 25 51
e 25 52
e 25 53
e 25 54
e 25 56
e 25 57
e 25 58
e 25 59
e 25 60
e 25 96
e 25 62
e 25 64
e 25 65
e 25 66
e 25 67
e 25 69
e 25 72
e 25 73
e 25 89
e 25 78
e 25 99
e 25 90
e 25 85
e 25 92
e 25 88
e 26 42
e 26 43
e 26 44
e 26 45
e 26 47
e 26 48
e 26 51
e 26 53
e 26 57
e 26 60
e 26 64
e 26 67
e 26 70
e 26 90
e 26 97
e 26 87
e 27 42
e 27 43
e 27 44
e 27 47
e 27 48
e 27 50
e 27 52
e 27 53
e 27 55
e 27 56
e 27 57
e 27 95
e 27 96
e 27 61
e 27 62
e 27 98
e 27 73
e 27 75
e 27 77
e 27 99
e 27 80
e 27 83
e 27 92
e 27 88
e 27 94
e 28 42
e 28 43
e 28 44
e 28 45
e 28 46
e 28 47
e 28 48
e 28 49
e 28 50
e 28 51
e 28 53
e 28 55
e 28 56
e 28 58
e 28 60
e 28 63
e 28 65
e 28 66
e 28 68
e 28 69
e 28 71
e 28 72
e 28 77
e 28 99
e 28 83
e 28 90
e 28 85
e 28 86
e 28 87
e 28 100
e 29 42
e 29 43
e 29 44
e 29 45
e 29 52
e 29 56
e 29 58
e 29 59
e 29 95
e 29 98
e 29 74
e 29 77
e 29 99
e 29 84
e 29 88
e 30 42
e 30 43
e 30 44
e 30 45
e 30 46
e 30 47
e 30 48
e 30 49
e 30 51
e 30 52
e 30 53
e 30 54
e 30 55
e 30 60
e 30 95
e 30 62
e 30 98
e 30 67
e 30 70
e 30 74
e 30 79
e 30 80
e 30 82
e 30 97
e 30 88
e 30 94
e 31 42
e 31 43
e 31 44
e 31 45
e 31 46
e 31 47
e 31 48
e 31 49
e 31 50
e 31 51
e 31 53
e 31 54
e 31 55
e 31 56
e 31 58
e 31 59
e 31 95
e 31 96
e 31 61
e 31 63
e 31 64
e 31 65
e 31 67
e 31 69
e 31 70
e 31 72
e 31 73
e 31 74
e 31 80
e 31 82
e 31 85
e 31 86
e 31 91
e 31 92
e 32 42
e 32 43
e 32 44
e 32 46
e 32 47
e 32 48
e 32 49
e 32 50
e 32 51
e 32 52
e 32 54
e 32 56
e 32 59
e 32 60
e 32 95
e 32 96
e 32 61
e 32 62
e 32 63
e 32 65
e 32 98
e 32 66
e 32 68
e 32 71
e 32 72
e 32 77
e 32 78
e 32 90
e 32 86
e 32 87
e 33 42
e 33 43
e 33 44
e 33 45
e 33 46
e 33 47
e 33 48
e 33 49
e 33 50
e 33 51
e 33 52
e 33 53
e 33 54
e 33 55
e 33 56
e 33 58
e 33 59
e 33 60
e 33 95
e 33 96
e 33 61
e 33 65
e 33 66
e 33 68
e 33 69
e 33 70
e 33 73
e 33 74
e 33 75
e 33 77
e 33 99
e 33 79
e 33 90
e 33 84
e 33 87
e 33 88
e 34 42
e 34 43
e 34 44
e 34 45
e 34 46
e 34 47
e 34 49
e 34 50
e 34 51
e 34 52
e 34 53
e 34 54
e 34 55
e 34 56
e 34 57
e 34 95
e 34 96
e 34 61
e 34 62
e 34 64
e 34 65
e 34 98
e 34 67
e 34 69
e 34 70
e 34 72
e 34 77
e 34 83
e 34 84
e 34 88
e 35 42
e 35 43
e 35 45
e 35 46
e 35 47
e 35 48
e 35 49
e 35 50
e 35 51
e 35 52
e 35 54
e 35 55
e 35 56
e 35 57
e 35 58
e 35 59
e 35 60
e 35 61
e 35 62
e 35 64
e 35 98
e 35 66
e 35 68
e 35 69
e 35 70
e 35 73
e 35 74
e 35 89
e 35 84
e 35 93
e 35 94
e 36 42
e 36 43
e 36 44
e 36 45
e 36 46
e 36 47
e 36 48
e 36 49
e 36 50
e 36 51
e 36 52
e 36 53
e 36 54
e 36 55
e 36 56
e 36 57
e 36 58
e 36 59
e 36 60
e 36 95
e 36 96
e 36 62
e 36 63
e 36 64
e 36 65
e 36 98
e 36 66
e 36 68
e 36 69
e 36 73
e 36 89
e 36 77
e 36 99
e 36 97
e 36 91
e 36 92
e 36 88
e 36 100
e 37 42
e 37 43
e 37 44
e 37 45
e 37 46
e 37 47
e 37 48
e 37 49
e 37 51
e 37 52
e 37 54
e 37 56
e 37 57
e 37 58
e 37 59
e 37 95
e 37 63
e 37 98
e 37 68
e 37 69
e 37 89
e 37 76
e 37 99
e 37 80
e 37 97
e 37 93
e 37 94
e 38 42
e 38 43
e 38 44
e 38 45
e 38 46
e 38 48
e 38 49
e 38 50
e 38 52
e 38 54
e 38 55
e 38 56
e 38 57
e 38 59
e 38 95
e 38 62
e 38 63
e 38 64
e 38 69
e 38 72
e 38 74
e 38 75
e 38 78
e 38 99
e 38 81
e 38 82
e 38 90
e 38 84
e 38 97
e 38 91
e 38 87
e 38 100
e 39 42
e 39 43
e 39 44
e 39 45
e 39 46
e 39 47
e 39 48
e 39 49
e 39 50
e 39 51
e 39 52
e 39 53
e 39 54
e 39 55
e 39 57
e 39 58
e 39 60
e 39 95
e 39 96
e 39 61
e 39 62
e 39 66
e 39 70
e 39 73
e 39 89
e 39 75
e 39 78
e 39 79
e 39 84
e 39 86
e 39 88
e 39 100
e 39 94
e 40 42
e 40 43
e 40 45
e 40 46
e 40 49
e 40 50
e 40 51
e 40 52
e 40 55
e 40 56
e 40 57
e 40 95
e 40 96
e 40 63
e 40 65
e 40 66
e 40 70
e 40 71
e 40 73
e 40 75
e 40 76
e 40 81
e 40 82
e 40 83
e 40 90
e 40 84
e 40 97
e 40 88
e 41 43
e 41 44
e 41 45
e 41 46
e 41 49
e 41 50
e 41 52
e 41 53
e 41 60
e 41 95
e 41 67
e 41 69
e 41 89
e 41 76
e 41 90
e 41 86
e 42 43
e 42 44
e 42 45
e 42 46
e 42 47
e 42 48
e 42 49
e 42 50
e 42 51
e 42 52
e 42 53
e 42 54
e 42 55
e 42 56
e 42 57
e 42 58
e 42 59
e 42 60
e 42 95
e 42 96
e 42 61
e 42 62
e 42 64
e 42 65
e 42 98
e 42 66
e 42 67
e 42 68
e 42 69
e 42 70
e 42 71
e 42 72
e 42 73
e 42 74
e 42 89
e 42 75
e 42 76
e 42 80
e 42 84
e 42 97
e 42 85
e 42 86
e 42 91
e 42 87
e 42 92
e 42 88
e 42 100
e 43 44
e 43 45
e 43 46
e 43 47
e 43 48
e 43 49
e 43 50
e 43 51
e 43 52
e 43 53
e 43 54
e 43 55
e 43 56
e 43 57
e 43 58
e 43 59
e 43 60
e 43 95
e 43 96
e 43 61
e 43 62
e 43 63
e 43 64
e 43 98
e 43 69
e 43 73
e 43 74
e 43 89
e 43 75
e 43 76
e 43 77
e 43 99
e 43 79
e 43 81
e 43 82
e 43 83
e 43 84
e 43 97
e 43 85
e 43 86
e 43 91
e 43 88
e 43 100
e 43 93
e 43 94
e 44 45
e 44 46
e 44 47
e 44 48
e 44 49
e 44 50
e 44 51
e 44 52
e 44 53
e 44 54
e 44 55
e 44 56
e 44 57
e 44 58
e 44 59
e 44 60
e 44 95
e 44 96
e 44 61
e 44 62
e 44 63
e 44 64
e 44 65
e 44 98
e 44 66
e 44 67
e 44 70
e 44 71
e 44 72
e 44 74
e 44 89
e 44 75
e 44 76
e 44 77
e 44 78
e 44 99
e 44 79
e 44 80
e 44 81
e 44 90
e 44 84
e 44 97
e 44 86
e 44 91
e 44 92
e 44 88
e 44 100
e 44 94
e 45 46
e 45 47
e 45 48
e 45 49
e 45 50
e 45 51
e 45 52
e 45 53
e 45 54
e 45 55
e 45 56
e 45 57
e 45 58
e 45 59
e 45 60
e 45 95
e 45 61
e 45 63
e 45 64
e 45 65
e 45 66
e 45 68
e 45 69
e 45 70
e 45 71
e 45 73
e 45 74
e 45 89
e 45 75
e 45 76
e 45 77
e 45 78
e 45 79
e 45 80
e 45 82
e 45 83
e 45 90
e 45 84
e 45 85
e 45 91
e 45 87
e 45 92
e 45 100
e 46 47
e 46 48
e 46 49
e 46 50
e 46 51
e 46 52
e 46 53
e 46 54
e 46 55
e 46 56
e 46 57
e 46 58
e 46 59
e 46 60
e 46 95
e 46 96
e 46 61
e 46 63
e 46 65
e 46 98
e 46 66
e 46 67
e 46 69
e 46 70
e 46 71
e 46 72
e 46 73
e 46 74
e 46 76
e 46 99
e 46 81
e 46 82
e 46 83
e 46 84
e 46 85
e 46 86
e 46 87
e 46 92
e 46 88
e 46 93
e 47 48
e 47 49
e 47 50
e 47 51
e 47 52
e 47 53
e 47 54
e 47 55
e 47 56
e 47 57
e 47 58
e 47 59
e 47 60
e 47 95
e 47 96
e 47 61
e 47 62
e 47 63
e 47 64
e 47 65
e 47 98
e 47 66
e 47 67
e 47 68
e 47 69
e 47 73
e 47 89
e 47 75
e 47 76
e 47 77
e 47 78
e 47 79
e 47 81
e 47 82
e 47 83
e 47 84
e 47 97
e 47 85
e 47 86
e 47 91
e 47 87
e 47 100
e 47 94
e 48 49
e 48 50
e 48 51
e 48 52
e 48 53
e 48 54
e 48 55
e 48 56
e 48 57
e 48 58
e 48 59
e 48 60
e 48 95
e 48 96
e 48 61
e 48 62
e 48 63
e 48 64
e 48 65
e 48 98
e 48 67
e 48 69
e 48 71
e 48 72
e 48 89
e 48 75
e 48 76
e 48 78
e 48 99
e 48 80
e 48 81
e 48 82
e 48 83
e 48 90
e 48 84
e 48 97
e 48 85
e 48 91
e 48 93
e 48 94
e 49 50
e 49 51
e 49 52
e 49 53
e 49 54
e 49 55
e 49 56
e 49 57
e 49 58
e 49 59
e 49 60
e 49 95
e 49 96
e 49 61
e 49 62
e 49 63
e 49 64
e 49 65
e 49 98
e 49 66
e 49 67
e 49 68
e 49 69
e 49 70
e 49 71
e 49 72
e 49 73
e 49 74
e 49 89
e 49 76
e 49 78
e 49 99
e 49 79
e 49 80
e 49 90
e 49 85
e 49 92
e 49 88
e 50 51
e 50 52
e 50 53
e 50 54
e 50 55
e 50 56
e 50 57
e 50 58
e 50 59
e 50 60
e 50 95
e 50 96
e 50 62
e 50 64
e 50 65
e 50 98
e 50 66
e 50 67
e 50 68
e 50 69
e 50 70
e 50 71
e 50 72
e 50 73
e 50 74
e 50 75
e 50 76
e 50 77
e 50 78
e 50 79
e 50 80
e 50 82
e 50 83
e 50 84
e 50 97
e 50 85
e 50 86
e 50 91
e 50 88
e 50 93
e 50 94
e 51 52
e 51 53
e 51 54
e 51 55
e 51 56
e 51 57
e 51 58
e 51 59
e 51 60
e 51 95
e 51 96
e 51 61
e 51 62
e 51 63
e 51 64
e 51 98
e 51 66
e 51 67
e 51 68
e 51 70
e 51 72
e 51 73
e 51 75
e 51 76
e 51 78
e 51 99
e 51 79
e 51 80
e 51 82
e 51 90
e 51 85
e 51 87
e 51 92
e 51 100
e 51 94
e 52 53
e 52 54
e 52 56
e 52 57
e 52 58
e 52 59
e 52 60
e 52 95
e 52 96
e 52 61
e 52 62
e 52 63
e 52 64
e 52 65
e 52 98
e 52 67
e 52 68
e 52 69
e 52 70
e 52 71
e 52 73
e 52 74
e 52 75
e 52 76
e 52 78
e 52 81
e 52 83
e 52 90
e 52 97
e 52 85
e 52 86
e 52 91
e 52 87
e 52 92
e 52 88
e 52 100
e 52 93
e 52 94
e 53 54
e 53 55
e 53 56
e 53 57
e 53 58
e 53 59
e 53 60
e 53 95
e 53 61
e 53 62
e 53 63
e 53 64
e 53 65
e 53 98
e 53 66
e 53 68
e 53 69
e 53 70
e 53 71
e 53 72
e 53 73
e 53 74
e 53 76
e 53 77
e 53 99
e 53 79
e 53 80
e 53 81
e 53 82
e 53 83
e 53 90
e 53 84
e 53 87
e 53 92
e 53 88
e 53 100
e 53 93
e 53 94
e 54 56
e 54 57
e 54 58
e 54 59
e 54 95
e 54 96
e 54 61
e 54 63
e 54 64
e 54 65
e 54 98
e 54 66
e 54 67
e 54 68
e 54 69
e 54 73
e 54 74
e 54 77
e 54 99
e 54 79
e 54 80
e 54 82
e 54 90
e 54 97
e 54 86
e 54 91
e 54 92
e 54 88
e 54 100
e 54 93
e 55 57
e 55 58
e 55 59
e 55 60
e 55 95
e 55 96
e 55 61
e 55 62
e 55 63
e 55 64
e 55 65
e 55 98
e 55 66
e 55 67
e 55 68
e 55 69
e 55 70
e 55 71
e 55 74
e 55 89
e 55 75
e 55 76
e 55 77
e 55 78
e 55 79
e 55 80
e 55 81
e 55 82
e 55 83
e 55 90
e 55 85
e 55 87
e 55 88
e 55 100
e 55 93
e 56 57
e 56 58
e 56 59
e 56 96
e 56 61
e 56 63
e 56 64
e 56 65
e 56 98
e 56 66
e 56 67
e 56 69
e 56 70
e 56 71
e 56 72
e 56 73
e 56 74
e 56 89
e 56 75
e 56 76
e 56 77
e 56 78
e 56 99
e 56 79
e 56 80
e 56 81
e 56 82
e 56 83
e 56 84
e 56 97
e 56 86
e 56 87
e 56 92
e 56 88
e 56 100
e 56 94
e 57 58
e 57 59
e 57 60
e 57 96
e 57 61
e 57 62
e 57 63
e 57 64
e 57 66
e 57 67
e 57 68
e 57 71
e 57 72
e 57 73
e 57 74
e 57 75
e 57 76
e 57 77
e 57 78
e 57 99
e 57 83
e 57 97
e 57 91
e 57 92
e 57 88
e 57 100
e 57 94
e 58 60
e 58 95
e 58 61
e 58 63
e 58 64
e 58 65
e 58 98
e 58 66
e 58 67
e 58 68
e 58 69
e 58 70
e 58 71
e 58 72
e 58 73
e 58 89
e 58 75
e 58 78
e 58 99
e 58 81
e 58 82
e 58 90
e 58 85
e 58 87
e 58 92
e 58 88
e 58 93
e 59 95
e 59 96
e 59 61
e 59 62
e 59 63
e 59 64
e 59 65
e 59 98
e 59 66
e 59 67
e 59 68
e 59 70
e 59 71
e 59 73
e 59 74
e 59 89
e 59 75
e 59 76
e 59 77
e 59 78
e 59 79
e 59 80
e 59 81
e 59 83
e 59 84
e 59 86
e 59 100
e 59 93
e 59 94
e 60 96
e 60 61
e 60 62
e 60 63
e 60 67
e 60 68
e 60 69
e 60 71
e 60 73
e 60 74
e 60 89
e 60 76
e 60 79
e 60 81
e 60 83
e 60 84
e 60 97
e 60 86
e 60 92
e 60 100
e 60 93
e 60 94
e 95 96
e 95 61
e 95 62
e 95 64
e 95 65
e 95 98
e 95 66
e 95 67
e 95 70
e 95 71
e 95 72
e 95 73
e 95 89
e 95 75
e 95 78
e 95 99
e 95 79
e 95 80
e 95 81
e 95 82
e 95 83
e 95 84
e 95 97
e 95 86
e 95 87
e 95 92
e 95 100
e 95 93
e 96 61
e 96 62
e 96 64
e 96 65
e 96 98
e 96 66
e 96 67
e 96 68
e 96 71
e 96 72
e 96 73
e 96 74
e 96 89
e 96 76
e 96 77
e 96 99
e 96 80
e 96 81
e 96 82
e 96 84
e 96 85
e 96 86
e 96 92
e 96 88
e 96 100
e 96 93
e 61 62
e 61 63
e 61 65
e 61 98
e 61 66
e 61 67
e 61 68
e 61 69
e 61 70
e 61 71
e 61 72
e 61 74
e 61 89
e 61 75
e 61 76
e 61 77
e 61 78
e 61 99
e 61 80
e 61 81
e 61 82
e 61 83
e 61 84
e 61 97
e 61 85
e 61 92
e 61 100
e 61 93
e 61 94
e 62 64
e 62 98
e 62 66
e 62 67
e 62 70
e 62 71
e 62 73
e 62 74
e 62 89
e 62 75
e 62 76
e 62 77
e 62 78
e 62 90
e 62 84
e 62 85
e 62 86
e 62 92
e 62 100
e 62 94
e 63 64
e 63 65
e 63 98
e 63 67
e 63 68
e 63 70
e 63 71
e 63 72
e 63 73
e 63 89
e 63 76
e 63 78
e 63 99
e 63 80
e 63 81
e 63 82
e 63 83
e 63 90
e 63 85
e 63 86
e 63 91
e 63 87
e 63 88
e 64 65
e 64 98
e 64 66
e 64 67
e 64 69
e 64 70
e 64 72
e 64 74
e 64 89
e 64 75
e 64 76
e 64 97
e 64 85
e 64 86
e 64 87
e 64 100
e 65 66
e 65 67
e 65 69
e 65 89
e 65 77
e 65 99
e 65 80
e 65 82
e 65 83
e 65 85
e 65 91
e 65 92
e 65 94
e 98 66
e 98 69
e 98 71
e 98 72
e 98 75
e 98 76
e 98 77
e 98 78
e 98 99
e 98 79
e 98 80
e 98 81
e 98 82
e 98 84
e 98 86
e 98 91
e 98 88
e 98 100
e 66 71
e 66 72
e 66 73
e 66 74
e 66 75
e 66 77
e 66 79
e 66 85
e 66 86
e 66 91
e 66 88
e 66 100
e 66 94
e 67 68
e 67 69
e 67 71
e 67 73
e 67 74
e 67 78
e 67 81
e 67 82
e 67 90
e 67 84
e 67 86
e 67 87
e 67 92
e 67 88
e 67 100
e 67 93
e 68 70
e 68 71
e 68 72
e 68 75
e 68 76
e 68 77
e 68 78
e 68 99
e 68 79
e 68 80
e 68 81
e 68 83
e 68 90
e 68 97
e 68 85
e 68 86
e 68 87
e 68 92
e 68 100
e 68 93
e 68 94
e 69 70
e 69 72
e 69 73
e 69 89
e 69 76
e 69 77
e 69 78
e 69 79
e 69 80
e 69 85
e 69 86
e 69 87
e 69 100
e 69 93
e 70 71
e 70 72
e 70 73
e 70 74
e 70 89
e 70 75
e 70 78
e 70 99
e 70 79
e 70 80
e 70 81
e 70 82
e 70 84
e 70 85
e 70 86
e 70 87
e 70 92
e 71 72
e 71 74
e 71 89
e 71 76
e 71 99
e 71 79
e 71 83
e 71 90
e 71 97
e 71 85
e 71 86
e 71 91
e 71 87
e 71 93
e 71 94
e 72 73
e 72 74
e 72 77
e 72 78
e 72 99
e 72 79
e 72 80
e 72 82
e 72 97
e 72 91
e 72 88
e 72 93
e 73 74
e 73 89
e 73 75
e 73 77
e 73 99
e 73 79
e 73 81
e 73 90
e 73 84
e 73 97
e 73 86
e 73 91
e 73 93
e 73 94
e 74 89
e 74 79
e 74 82
e 74 90
e 74 97
e 74 85
e 74 91
e 74 100
e 74 94
e 89 75
e 89 76
e 89 78
e 89 99
e 89 79
e 89 81
e 89 82
e 89 83
e 89 90
e 89 84
e 89 97
e 89 100
e 89 93
e 89 94
e 75 76
e 75 78
e 75 99
e 75 80
e 75 81
e 75 82
e 75 83
e 75 85
e 75 87
e 75 92
e 75 100
e 75 93
e 76 78
e 76 79
e 76 81
e 76 82
e 76 86
e 76 88
e 76 100
e 76 93
e 76 94
e 77 78
e 77 99
e 77 79
e 77 80
e 77 81
e 77 83
e 77 90
e 77 85
e 77 93
e 77 94
e 78 99
e 78 80
e 78 81
e 78 82
e 78 83
e 78 84
e 78 91
e 78 92
e 78 100
e 78 93
e 99 80
e 99 81
e 99 82
e 99 85
e 99 91
e 99 88
e 99 94
e 79 81
e 79 83
e 79 85
e 79 86
e 79 91
e 79 92
e 79 100
e 79 94
e 80 81
e 80 82
e 80 83
e 80 90
e 80 84
e 80 91
e 80 93
e 81 82
e 81 83
e 81 90
e 81 92
e 82 83
e 82 90
e 82 84
e 82 97
e 82 86
e 82 91
e 82 87
e 82 92
e 82 88
e 82 94
e 83 90
e 83 97
e 83 91
e 83 87
e 90 84
e 90 87
e 90 94
e 84 85
e 84 86
e 84 91
e 84 88
e 84 93
e 97 91
e 97 87
e 97 92
e 97 88
e 97 93
e 97 94
e 85 86
e 85 91
e 85 87
e 85 93
e 85 94
e 86 91
e 86 87
e 86 93
e 86 94
e 91 87
e 91 92
e 87 88
e 87 94
e 92 100
e 88 94
e 100 94
